c random clauses
p cnf 9 16
-9 -8 -7 -5 -1 3 4 6 0
-9 -8 -7 -4 -3 -2 5 6 0
-9 -7 -6 -5 -3 -2 1 8 0
-9 -7 -6 -4 -3 -2 5 8 0
-9 -7 -6 -3 1 4 5 8 0
-9 -7 -3 -2 1 4 5 8 0
-9 -6 -4 -2 1 3 5 8 0
-9 -5 -4 -3 -2 6 7 8 0
-9 -2 -1 3 5 6 7 8 0
-8 -7 -6 -5 -4 -2 3 9 0
-8 -7 -6 -3 -1 2 4 9 0
-8 -7 -6 1 2 3 4 9 0
-8 -5 -3 -1 2 4 6 7 0
-6 -3 1 2 5 7 8 9 0
-4 -3 -1 5 6 7 8 9 0
-1 2 4 5 6 7 8 9 0
